Normalized Data/p02_26_normalized_split0.vrp
NAME:p02_26_NORMALIZED_split
BEST_KNOWN: 0
COMMENT: 0
DIMENSION: 288
CAPACITY: 100
EDGE_WEIGHT_FORMAT: FUNCTION
EDGE_WEIGHT_TYPE: EXACT_2D
NODE_COORD_SECTION
1 0.00000 0.00000
2 46 24
3 46 24
4 46 24
5 3 -27
6 3 -27
7 3 -27
8 3 -27
9 22 44
10 22 44
11 22 44
12 11 -15
13 11 -15
14 11 -15
15 -39 -2
16 -39 -2
17 -39 -2
18 -39 -2
19 26 -29
20 26 -29
21 26 -29
22 26 -29
23 26 -29
24 26 -29
25 -15 6
26 -15 6
27 -15 6
28 -15 6
29 28 0
30 28 0
31 28 0
32 28 0
33 28 0
34 28 0
35 -9 42
36 -9 42
37 -9 42
38 -9 42
39 -9 42
40 -9 42
41 -21 23
42 -21 23
43 -21 23
44 -43 26
45 -43 26
46 -43 26
47 29 -36
48 29 -36
49 29 -36
50 29 -36
51 -40 -16
52 -40 -16
53 -40 -16
54 -40 -16
55 -40 -16
56 -40 -16
57 -40 -16
58 1 -43
59 1 -43
60 1 -43
61 19 -38
62 19 -38
63 19 -38
64 26 21
65 26 21
66 26 21
67 26 21
68 26 21
69 26 21
70 47 25
71 47 25
72 47 -8
73 47 -8
74 47 -8
75 47 -8
76 -18 -34
77 -18 -34
78 31 -4
79 31 -4
80 32 40
81 32 40
82 32 40
83 12 25
84 12 25
85 12 25
86 -41 0
87 -41 0
88 -41 0
89 -41 0
90 -41 0
91 -41 0
92 -22 22
93 -22 22
94 -22 22
95 -22 22
96 8 25
97 -5 -20
98 -5 -20
99 -5 -20
100 -5 -20
101 -5 -20
102 -5 -20
103 25 4
104 25 4
105 25 4
106 48 44
107 48 44
108 48 44
109 48 44
110 21 -42
111 21 -42
112 21 -42
113 21 -42
114 10 -38
115 10 -38
116 10 -38
117 10 -38
118 10 -38
119 10 -38
120 17 -22
121 17 -22
122 -29 26
123 -29 26
124 -29 26
125 -29 26
126 -2 -13
127 -2 -13
128 -2 -13
129 35 48
130 35 48
131 -50 9
132 -50 9
133 -23 1
134 -23 1
135 -23 1
136 -23 1
137 -23 1
138 13 -19
139 13 -19
140 13 -19
141 13 -19
142 -2 29
143 -2 29
144 -33 -10
145 -33 -10
146 -33 -10
147 -33 -10
148 -34 37
149 -34 37
150 -34 37
151 19 37
152 19 37
153 19 37
154 39 -8
155 39 -8
156 39 -8
157 23 -48
158 23 -48
159 23 -48
160 23 -48
161 23 -48
162 23 -48
163 -39 18
164 -39 18
165 -39 18
166 -25 -24
167 -25 -24
168 -25 -24
169 -25 -24
170 -25 -24
171 -6 44
172 -6 44
173 -6 44
174 -6 44
175 -6 44
176 -45 -32
177 -45 -32
178 -45 -32
179 -45 -32
180 23 -13
181 23 -13
182 23 -13
183 23 -13
184 23 -13
185 23 -13
186 23 -13
187 -23 -47
188 -23 -47
189 -23 -47
190 -23 -47
191 -23 -47
192 -5 27
193 -5 27
194 -5 27
195 -5 27
196 -47 -13
197 -47 -13
198 -47 -13
199 -47 -13
200 -47 -13
201 -47 -13
202 -30 -20
203 -30 -20
204 -30 -20
205 -30 -20
206 -41 -26
207 -41 -26
208 -41 -26
209 -9 -9
210 -9 -9
211 -9 -9
212 10 13
213 10 13
214 10 13
215 -47 15
216 -47 15
217 -47 15
218 -47 15
219 -47 15
220 49 -22
221 49 -22
222 49 -22
223 49 -22
224 49 -22
225 49 -22
226 -5 -40
227 -5 -40
228 13 -33
229 -8 31
230 -8 31
231 -8 31
232 -8 31
233 -8 31
234 27 41
235 27 41
236 27 41
237 21 -33
238 21 -33
239 21 -33
240 -20 49
241 -20 49
242 -20 49
243 -20 49
244 -20 49
245 18 47
246 18 47
247 -29 -45
248 -29 -45
249 -29 -45
250 -29 -45
251 -7 -35
252 -7 -35
253 -7 -35
254 -7 -35
255 14 38
256 14 38
257 -40 12
258 -40 12
259 -40 12
260 7 -7
261 7 -7
262 7 -7
263 41 36
264 41 36
265 41 36
266 41 36
267 19 11
268 19 11
269 19 11
270 -22 -33
271 -22 -33
272 -22 -33
273 -22 -33
274 -22 -33
275 -2 1
276 -2 1
277 -2 1
278 -2 1
279 7 -25
280 7 -25
281 7 -25
282 7 -25
283 42 -17
284 42 -17
285 42 -17
286 42 -17
287 42 -17
288 42 -17
DEMAND_SECTION
1 0
2 20
3 10
4 5
5 10
6 5
7 1
8 1
9 20
10 10
11 5
12 20
13 20
14 5
15 20
16 1
17 1
18 1
19 20
20 5
21 1
22 1
23 1
24 1
25 20
26 20
27 5
28 1
29 20
30 20
31 1
32 1
33 1
34 1
35 20
36 10
37 5
38 1
39 1
40 1
41 20
42 20
43 10
44 20
45 10
46 5
47 10
48 5
49 1
50 1
51 20
52 10
53 5
54 1
55 1
56 1
57 1
58 20
59 1
60 1
61 20
62 10
63 5
64 20
65 5
66 1
67 1
68 1
69 1
70 20
71 10
72 20
73 10
74 5
75 1
76 20
77 20
78 20
79 5
80 20
81 10
82 5
83 10
84 1
85 1
86 20
87 20
88 5
89 1
90 1
91 1
92 20
93 20
94 1
95 1
96 20
97 10
98 5
99 1
100 1
101 1
102 1
103 20
104 20
105 1
106 10
107 5
108 1
109 1
110 20
111 1
112 1
113 1
114 10
115 5
116 1
117 1
118 1
119 1
120 10
121 5
122 20
123 10
124 5
125 1
126 20
127 1
128 1
129 20
130 5
131 10
132 5
133 20
134 10
135 5
136 1
137 1
138 20
139 5
140 1
141 1
142 20
143 10
144 20
145 10
146 1
147 1
148 10
149 5
150 1
151 20
152 10
153 5
154 10
155 5
156 1
157 20
158 20
159 1
160 1
161 1
162 1
163 20
164 20
165 10
166 10
167 1
168 1
169 1
170 1
171 20
172 20
173 1
174 1
175 1
176 10
177 1
178 1
179 1
180 20
181 10
182 5
183 1
184 1
185 1
186 1
187 10
188 5
189 1
190 1
191 1
192 20
193 20
194 5
195 1
196 10
197 5
198 1
199 1
200 1
201 1
202 10
203 5
204 1
205 1
206 20
207 20
208 10
209 20
210 10
211 5
212 20
213 20
214 10
215 20
216 20
217 5
218 1
219 1
220 20
221 20
222 1
223 1
224 1
225 1
226 20
227 20
228 20
229 20
230 10
231 5
232 1
233 1
234 20
235 1
236 1
237 20
238 1
239 1
240 20
241 20
242 5
243 1
244 1
245 20
246 5
247 10
248 1
249 1
250 1
251 20
252 1
253 1
254 1
255 20
256 10
257 10
258 1
259 1
260 20
261 1
262 1
263 10
264 5
265 1
266 1
267 20
268 20
269 10
270 20
271 5
272 1
273 1
274 1
275 20
276 5
277 1
278 1
279 20
280 20
281 5
282 1
283 20
284 10
285 5
286 1
287 1
288 1
DEPOT_SECTION
1
-1
EOF