Normalized Data/p02_26_normalized_split0.sol
287 -3 1 2 70 69 63 65 68 64 67 66 -17 14 15 16 85 90 89 87 88 86 132 134 135 136 -24 26 27 256 258 257 218 216 217 214 215 131 130 -25 231 228 229 194 193 191 192 -29 30 33 32 28 31 102 103 104 -40 42 41 92 93 91 94 -45 44 43 164 162 163 -57 58 59 226 225 250 251 253 252 97 96 -61 60 62 46 49 48 47 19 21 18 22 23 20 119 120 -78 77 71 74 72 73 155 154 153 182 179 185 -81 79 80 129 128 106 105 108 107 264 263 265 262 -84 82 83 152 245 244 10 9 8 234 233 235 -95 151 150 255 254 141 -98 76 75 190 189 186 188 187 249 246 248 247 271 270 269 273 272 -100 99 101 4 6 7 5 113 118 116 117 114 115 227 279 281 278 -123 124 122 121 149 147 148 242 243 240 241 239 -126 125 127 209 210 208 274 276 277 275 -133 195 197 196 199 200 198 56 54 55 53 52 51 50 146 144 145 143 -140 139 138 137 12 13 11 259 261 260 -142 170 174 172 171 173 38 36 35 39 37 34 230 232 -169 166 165 168 167 177 175 178 176 207 206 205 202 201 203 204 -180 181 183 184 219 224 223 222 221 220 282 284 287 286 283 285 -213 211 212 266 267 268 -237 236 238 110 112 109 111 157 156 161 159 160 158 280 0 





OBJ=
2204.444
BEST_KNOWN=
0.000